c Lingeling SAT Solver
c 
c Version bbc 923038088b727dcc8bd03aa8dfb5013bd03bf8c4
c 
c Copyright (C) 2010-2016 Armin Biere JKU Linz Austria.
c All rights reserved.
c 
c released Thu Jul  7 10:21:35 CEST 2016
c compiled Wed Oct 25 12:56:16 WEST 2017
c 
c gcc (Debian 6.3.0-18) 6.3.0 20170516
c -Wall -O3 -DNLGLOG -DNDEBUG -DNCHKSOL -DNLGLDRUPLIG -DNLGLYALSAT
c -DNLGLFILES -DNLGLDEMA
c Linux sigma03.ist.utl.pt 4.9.0-3-amd64 x86_64
c 
c reading input file <stdin>
c no embedded options
c found 'p cnf 21472 118309' header
c read 21472 variables, 118309 clauses, 256029 literals in 0.00 seconds
c 
c  seconds         irredundant            redundant clauses   glue   iterations"      MB    stability
c          variables clauses conflicts  large ternary binary     jlevel       jlevel'  agility     tlevel
c 
c  S    0.0    7346    94575         0       0      0     0    0     0      0     0    4  66     0      0
c 
c  seconds         irredundant            redundant clauses   glue   iterations"      MB    stability
c          variables clauses conflicts  large ternary binary     jlevel       jlevel'  agility     tlevel
c 
s UNSATISFIABLE
c
c    0.088  96% simplifying
c    0.000   0% search
c ==================================
c    0.092 100% all
c 
c             0 conflicts,           0.0 confs/sec
c             0 ternaries,           0.0 confs/ternary
c             0 binaries,            0.0 confs/binary
c             0 iterations,          0.0 confs/iteration
c 
c             0 reductions,          0.0 redus/sec,      0.0 confs/reduction
c             0 restarts,            0.0 rests/sec,      0.0 confs/restart
c             0 decisions,           0.0 decis/sec,      0.0 decis/conflict
c         12574 propagations,   136673.9 props/sec,      0.0 props/decision
c 
c 0.1 seconds, 5.4 MB
